Academic license - for non-commercial use only - expires 2022-11-10
Using license file /home/benedond/Apps/gurobi/gurobi950/gurobi.lic
Using gurobi.env file
Set parameter Threads to value 1
Changed value of parameter TimeLimit to 1200.0
   Prev: inf  Min: 0.0  Max: inf  Default: inf
Gurobi Optimizer version 9.1.2 build v9.1.2rc0 (linux64)
Thread count: 2 physical cores, 4 logical processors, using up to 1 threads
Optimize a model with 975 rows, 480 columns and 3658 nonzeros
Model fingerprint: 0x3c5a5e8c
Variable types: 15 continuous, 465 integer (450 binary)
Coefficient statistics:
  Matrix range     [2e-01, 2e+03]
  Objective range  [2e-03, 4e-01]
  Bounds range     [1e+00, 1e+00]
  RHS range        [1e+00, 2e+03]

---------------------------------------------------------------------------
Multi-objectives: starting optimization with 1 objectives ... 
---------------------------------------------------------------------------
---------------------------------------------------------------------------

Multi-objectives: optimize objective 1 (min avg power cons) ...
---------------------------------------------------------------------------

Optimize a model with 975 rows, 480 columns and 3658 nonzeros
Model fingerprint: 0xe60e5535
Variable types: 15 continuous, 465 integer (450 binary)
Coefficient statistics:
  Matrix range     [2e-01, 2e+03]
  Objective range  [2e-03, 4e-01]
  Bounds range     [1e+00, 1e+00]
  RHS range        [1e+00, 2e+03]
Presolve removed 689 rows and 315 columns
Presolve time: 0.04s
Presolved: 286 rows, 165 columns, 1731 nonzeros
Variable types: 9 continuous, 156 integer (147 binary)

Root relaxation: objective 1.938557e+00, 111 iterations, 0.00 seconds

    Nodes    |    Current Node    |     Objective Bounds      |     Work
 Expl Unexpl |  Obj  Depth IntInf | Incumbent    BestBd   Gap | It/Node Time

     0     0    1.93856    0   51          -    1.93856      -     -    0s
H    0     0                       4.7372000    1.93856  59.1%     -    0s
H    0     0                       4.2411385    1.93856  54.3%     -    0s
H    0     0                       4.1782616    1.93856  53.6%     -    0s
     0     0    2.16435    0   38    4.17826    2.16435  48.2%     -    0s
H    0     0                       3.8163231    2.16435  43.3%     -    0s
H    0     0                       3.8140000    2.16435  43.3%     -    0s
     0     0    2.18834    0   47    3.81400    2.18834  42.6%     -    0s
     0     0    2.44744    0   45    3.81400    2.44744  35.8%     -    0s
     0     0    2.44860    0   43    3.81400    2.44860  35.8%     -    0s
     0     0    2.44860    0   43    3.81400    2.44860  35.8%     -    0s
     0     0    2.52686    0   56    3.81400    2.52686  33.7%     -    0s
     0     0    2.54360    0   55    3.81400    2.54360  33.3%     -    0s
     0     0    2.56270    0   55    3.81400    2.56270  32.8%     -    0s
     0     0    2.56600    0   55    3.81400    2.56600  32.7%     -    0s
     0     0    2.56660    0   56    3.81400    2.56660  32.7%     -    0s
     0     0    2.56663    0   56    3.81400    2.56663  32.7%     -    0s
     0     0    2.58588    0   53    3.81400    2.58588  32.2%     -    0s
     0     0    2.60599    0   55    3.81400    2.60599  31.7%     -    0s
     0     0    2.61481    0   60    3.81400    2.61481  31.4%     -    0s
     0     0    2.61793    0   56    3.81400    2.61793  31.4%     -    0s
     0     0    2.62045    0   61    3.81400    2.62045  31.3%     -    0s
     0     0    2.62082    0   63    3.81400    2.62082  31.3%     -    0s
     0     0    2.62088    0   64    3.81400    2.62088  31.3%     -    0s
     0     0    2.62204    0   61    3.81400    2.62204  31.3%     -    0s
     0     0    2.62217    0   54    3.81400    2.62217  31.2%     -    0s
     0     0    2.62356    0   52    3.81400    2.62356  31.2%     -    0s
     0     0    2.62370    0   53    3.81400    2.62370  31.2%     -    0s
     0     0    2.62410    0   49    3.81400    2.62410  31.2%     -    0s
     0     0    2.62413    0   52    3.81400    2.62413  31.2%     -    0s
     0     0    2.62475    0   51    3.81400    2.62475  31.2%     -    0s
     0     0    2.62475    0   50    3.81400    2.62475  31.2%     -    0s
H    0     0                       3.7041385    2.62475  29.1%     -    0s
     0     2    2.62551    0   49    3.70414    2.62551  29.1%     -    0s
H  112    37                       3.6820923    2.74455  25.5%  14.2    0s
*  122    39              17       3.5614462    2.74455  22.9%  13.8    0s

Cutting planes:
  Gomory: 1
  Cover: 9
  Implied bound: 15
  Clique: 1
  MIR: 72
  StrongCG: 6
  GUB cover: 5
  Inf proof: 1
  RLT: 3
  Relax-and-lift: 27

Explored 272 nodes (5383 simplex iterations) in 0.26 seconds
Thread count was 1 (of 4 available processors)

Solution count 8: 3.56145 3.68209 3.70414 ... 4.7372

Optimal solution found (tolerance 1.00e-04)
Best objective 3.561446158313e+00, best bound 3.561446158313e+00, gap 0.0000%

---------------------------------------------------------------------------
Multi-objectives: solved in 0.26 seconds, solution count 8

